data/OOEBPP/R1000/BPP_1000_400_0.2_0.8_3.txt.ins
1000
400 400
1 320 76
2 320 135
3 320 686
4 320 170
5 319 378
6 319 214
7 319 250
8 318 818
9 318 598
10 318 6
11 318 637
12 318 660
13 318 883
14 317 743
15 317 900
16 317 873
17 317 402
18 316 869
19 316 853
20 316 238
21 316 416
22 316 742
23 316 321
24 315 803
25 315 455
26 315 531
27 315 810
28 315 288
29 315 747
30 315 588
31 315 538
32 315 349
33 314 813
34 314 461
35 313 255
36 313 771
37 312 688
38 312 82
39 312 161
40 312 446
41 311 168
42 311 741
43 311 374
44 310 985
45 310 416
46 310 239
47 310 834
48 310 353
49 310 175
50 309 68
51 309 516
52 309 839
53 309 962
54 308 730
55 308 541
56 308 637
57 307 688
58 307 106
59 307 972
60 307 577
61 307 661
62 307 300
63 307 108
64 307 103
65 307 465
66 306 946
67 306 322
68 306 175
69 306 336
70 306 967
71 305 19
72 305 431
73 305 458
74 305 686
75 305 860
76 304 391
77 304 565
78 304 262
79 304 964
80 304 859
81 304 644
82 304 853
83 304 149
84 304 468
85 304 459
86 304 309
87 303 100
88 303 509
89 302 685
90 302 618
91 302 868
92 302 760
93 302 242
94 302 58
95 301 346
96 301 349
97 300 972
98 300 93
99 300 161
100 300 477
101 300 312
102 300 952
103 300 246
104 299 791
105 299 311
106 299 402
107 299 579
108 299 7
109 299 421
110 299 34
111 298 96
112 298 804
113 298 573
114 298 187
115 298 647
116 298 266
117 298 390
118 297 688
119 297 659
120 297 422
121 297 17
122 297 640
123 297 972
124 297 449
125 296 986
126 296 910
127 296 975
128 296 316
129 295 970
130 295 68
131 295 916
132 295 603
133 295 873
134 295 285
135 295 32
136 294 374
137 294 947
138 293 427
139 292 578
140 292 165
141 292 12
142 292 875
143 292 459
144 291 716
145 291 300
146 291 972
147 291 711
148 291 781
149 291 431
150 291 82
151 290 621
152 290 70
153 289 372
154 289 419
155 289 195
156 289 540
157 289 309
158 288 491
159 288 403
160 288 776
161 287 400
162 286 202
163 286 527
164 286 734
165 286 909
166 286 338
167 285 197
168 285 890
169 285 304
170 284 122
171 284 827
172 284 224
173 284 128
174 284 497
175 284 146
176 284 832
177 283 255
178 283 60
179 282 642
180 282 197
181 282 375
182 282 974
183 281 807
184 281 144
185 281 931
186 281 595
187 281 16
188 281 297
189 281 966
190 280 164
191 280 678
192 280 983
193 280 44
194 280 855
195 279 222
196 279 447
197 278 349
198 278 143
199 278 819
200 278 699
201 278 445
202 278 931
203 278 824
204 277 503
205 277 762
206 277 45
207 277 42
208 276 649
209 276 945
210 276 251
211 275 338
212 275 765
213 275 927
214 274 897
215 274 756
216 274 313
217 274 753
218 273 384
219 273 865
220 273 973
221 273 159
222 273 391
223 273 841
224 272 499
225 272 401
226 271 164
227 271 485
228 270 536
229 270 904
230 270 165
231 270 674
232 270 888
233 270 53
234 270 31
235 269 28
236 269 865
237 269 582
238 269 592
239 269 276
240 269 848
241 268 565
242 268 47
243 268 417
244 267 761
245 267 122
246 267 933
247 266 358
248 266 348
249 266 556
250 266 869
251 266 416
252 265 496
253 265 881
254 265 574
255 265 299
256 265 657
257 264 34
258 264 850
259 264 664
260 264 441
261 264 477
262 264 413
263 264 357
264 264 665
265 263 305
266 263 38
267 262 543
268 262 959
269 261 2
270 261 853
271 261 323
272 261 931
273 261 951
274 260 414
275 260 905
276 260 550
277 259 502
278 259 133
279 259 399
280 259 752
281 259 730
282 259 160
283 258 656
284 258 786
285 258 211
286 258 217
287 257 309
288 257 878
289 257 175
290 257 980
291 256 52
292 255 236
293 255 121
294 255 212
295 255 831
296 254 480
297 254 543
298 254 510
299 254 219
300 254 137
301 254 45
302 253 305
303 252 135
304 252 142
305 252 511
306 252 25
307 251 840
308 250 556
309 250 344
310 250 739
311 249 830
312 249 303
313 249 123
314 248 184
315 248 3
316 246 872
317 246 89
318 246 376
319 246 41
320 244 132
321 244 941
322 244 297
323 244 925
324 244 313
325 244 481
326 243 327
327 243 2
328 243 236
329 242 361
330 241 774
331 240 443
332 240 813
333 240 240
334 240 830
335 240 163
336 240 496
337 240 493
338 240 52
339 240 311
340 239 762
341 239 386
342 239 786
343 239 168
344 238 552
345 238 48
346 238 778
347 237 113
348 237 268
349 237 376
350 237 642
351 237 626
352 236 637
353 236 654
354 236 353
355 235 344
356 235 987
357 234 374
358 234 470
359 234 915
360 234 252
361 234 240
362 234 314
363 234 348
364 233 294
365 233 426
366 232 327
367 232 642
368 232 616
369 232 97
370 232 559
371 232 481
372 231 813
373 231 692
374 231 606
375 231 931
376 229 3
377 229 633
378 229 944
379 229 948
380 229 683
381 228 193
382 228 528
383 228 519
384 227 246
385 227 994
386 227 54
387 227 5
388 227 335
389 226 526
390 226 858
391 225 723
392 225 91
393 225 722
394 225 777
395 224 397
396 224 481
397 224 994
398 224 818
399 223 795
400 223 111
401 222 568
402 222 600
403 221 55
404 220 202
405 220 592
406 220 201
407 220 315
408 219 601
409 219 637
410 219 476
411 219 813
412 219 519
413 219 971
414 218 28
415 217 587
416 217 742
417 217 878
418 217 710
419 217 45
420 217 956
421 216 389
422 216 56
423 216 986
424 216 632
425 216 945
426 215 488
427 215 126
428 215 169
429 215 964
430 214 749
431 214 818
432 214 542
433 214 643
434 214 982
435 213 31
436 213 896
437 213 836
438 213 133
439 212 763
440 212 599
441 212 274
442 212 488
443 212 270
444 211 782
445 211 213
446 211 225
447 210 793
448 210 237
449 210 530
450 210 50
451 210 166
452 209 651
453 209 414
454 209 390
455 208 739
456 208 364
457 208 743
458 208 144
459 208 788
460 208 554
461 207 150
462 207 249
463 207 72
464 207 8
465 207 365
466 206 508
467 206 792
468 206 706
469 206 223
470 206 878
471 206 494
472 206 594
473 206 111
474 206 164
475 205 199
476 205 993
477 205 70
478 205 898
479 205 180
480 205 287
481 205 757
482 204 617
483 204 224
484 204 678
485 204 930
486 203 713
487 203 196
488 203 134
489 203 552
490 203 408
491 203 618
492 202 148
493 202 332
494 202 40
495 201 458
496 201 323
497 201 914
498 201 75
499 201 478
500 201 275
501 200 146
502 200 644
503 200 555
504 200 957
505 199 535
506 199 979
507 199 917
508 199 209
509 199 326
510 199 929
511 199 985
512 199 29
513 199 423
514 198 449
515 198 25
516 198 85
517 198 511
518 198 365
519 198 932
520 198 685
521 198 844
522 198 20
523 197 310
524 197 601
525 197 38
526 196 770
527 196 838
528 196 544
529 196 229
530 196 496
531 196 32
532 196 24
533 195 30
534 194 64
535 194 501
536 194 636
537 193 88
538 193 257
539 193 71
540 193 522
541 193 237
542 192 659
543 191 776
544 191 293
545 190 219
546 190 237
547 190 997
548 190 726
549 189 978
550 189 722
551 189 720
552 188 837
553 188 456
554 188 717
555 188 805
556 188 182
557 188 79
558 187 556
559 187 492
560 186 148
561 186 954
562 186 985
563 185 200
564 185 839
565 184 604
566 183 604
567 183 847
568 183 137
569 183 482
570 183 386
571 183 538
572 183 387
573 182 451
574 182 582
575 182 15
576 181 555
577 181 168
578 181 673
579 181 240
580 180 540
581 180 826
582 180 961
583 180 802
584 179 379
585 178 11
586 178 496
587 178 611
588 178 786
589 178 649
590 177 805
591 176 622
592 176 613
593 176 351
594 175 390
595 175 298
596 175 519
597 174 977
598 174 293
599 173 688
600 173 989
601 172 457
602 172 529
603 172 74
604 172 634
605 172 451
606 171 961
607 171 582
608 171 883
609 171 514
610 171 974
611 171 298
612 170 999
613 170 648
614 170 435
615 170 435
616 170 263
617 170 84
618 169 676
619 169 488
620 169 420
621 169 45
622 169 470
623 169 289
624 168 948
625 168 573
626 168 671
627 168 529
628 168 329
629 167 222
630 167 360
631 167 105
632 167 122
633 166 594
634 166 619
635 165 777
636 165 474
637 165 334
638 165 55
639 165 715
640 165 45
641 165 254
642 165 507
643 164 887
644 164 561
645 163 300
646 162 815
647 162 710
648 162 853
649 162 825
650 162 369
651 162 680
652 161 791
653 161 554
654 161 264
655 161 32
656 160 819
657 160 173
658 160 618
659 160 1
660 160 560
661 160 581
662 160 538
663 159 892
664 157 586
665 157 569
666 156 135
667 156 751
668 155 649
669 155 569
670 155 318
671 155 517
672 155 353
673 155 257
674 154 859
675 154 689
676 154 435
677 154 15
678 154 868
679 154 849
680 153 828
681 153 994
682 152 229
683 152 644
684 152 15
685 152 963
686 152 129
687 152 161
688 152 376
689 151 153
690 151 625
691 151 3
692 150 743
693 150 620
694 150 67
695 150 464
696 150 905
697 150 410
698 149 348
699 149 956
700 149 869
701 149 530
702 149 483
703 149 652
704 148 761
705 148 29
706 148 935
707 148 446
708 148 585
709 147 226
710 147 82
711 147 524
712 147 581
713 146 523
714 146 807
715 145 742
716 145 519
717 145 140
718 145 753
719 145 374
720 144 112
721 144 217
722 144 125
723 144 755
724 144 154
725 144 110
726 144 720
727 143 456
728 143 296
729 143 70
730 143 967
731 143 278
732 143 799
733 143 98
734 143 758
735 142 822
736 142 667
737 142 199
738 142 946
739 142 658
740 142 64
741 141 25
742 140 373
743 140 886
744 140 834
745 140 481
746 140 156
747 140 718
748 140 718
749 139 685
750 139 32
751 138 167
752 138 598
753 138 761
754 138 309
755 137 102
756 137 506
757 137 180
758 137 657
759 136 312
760 136 389
761 136 199
762 136 889
763 136 261
764 136 304
765 136 974
766 135 843
767 135 849
768 135 92
769 135 376
770 135 86
771 135 270
772 135 805
773 135 401
774 134 204
775 134 536
776 134 304
777 133 687
778 133 524
779 133 486
780 133 673
781 133 396
782 133 808
783 133 624
784 132 36
785 132 551
786 132 540
787 132 891
788 131 161
789 131 331
790 130 761
791 130 296
792 130 972
793 129 27
794 129 806
795 129 564
796 128 194
797 128 550
798 128 325
799 128 567
800 128 410
801 127 326
802 127 615
803 127 562
804 126 506
805 126 150
806 126 378
807 126 971
808 126 430
809 125 970
810 125 57
811 125 455
812 125 439
813 125 811
814 125 119
815 125 109
816 125 548
817 125 373
818 125 525
819 124 574
820 123 298
821 123 489
822 122 764
823 122 808
824 121 275
825 121 857
826 121 472
827 120 227
828 120 313
829 120 111
830 120 60
831 120 151
832 119 631
833 119 997
834 119 157
835 119 517
836 119 541
837 118 547
838 118 103
839 118 600
840 118 697
841 118 961
842 118 59
843 117 839
844 117 506
845 117 260
846 117 435
847 117 852
848 117 438
849 116 859
850 115 263
851 115 461
852 115 390
853 115 70
854 114 796
855 114 750
856 114 941
857 114 438
858 114 585
859 113 905
860 113 536
861 113 376
862 113 933
863 113 259
864 113 841
865 113 237
866 113 653
867 113 564
868 113 920
869 112 249
870 112 546
871 112 831
872 112 209
873 112 599
874 111 758
875 111 266
876 110 593
877 110 358
878 110 218
879 110 572
880 110 718
881 109 417
882 109 607
883 109 651
884 109 875
885 108 156
886 108 778
887 108 607
888 108 36
889 107 554
890 106 568
891 106 875
892 105 969
893 105 539
894 105 875
895 105 60
896 104 47
897 104 714
898 104 301
899 104 122
900 104 68
901 104 833
902 104 608
903 103 590
904 103 1000
905 102 150
906 101 894
907 101 327
908 101 851
909 101 693
910 101 691
911 101 754
912 101 557
913 100 901
914 100 926
915 100 125
916 100 504
917 100 48
918 99 914
919 99 486
920 99 662
921 98 916
922 98 986
923 98 765
924 98 971
925 97 731
926 97 957
927 97 285
928 97 447
929 96 773
930 96 429
931 96 524
932 96 20
933 95 208
934 95 662
935 95 810
936 94 858
937 94 27
938 94 481
939 93 273
940 93 988
941 93 425
942 93 468
943 93 557
944 93 127
945 93 592
946 93 169
947 93 241
948 92 491
949 92 388
950 92 39
951 92 941
952 91 495
953 91 367
954 91 292
955 90 315
956 90 345
957 90 175
958 89 643
959 89 610
960 89 306
961 89 897
962 89 768
963 88 571
964 88 774
965 88 669
966 88 645
967 87 241
968 87 792
969 87 180
970 86 589
971 86 898
972 85 580
973 85 632
974 85 491
975 85 890
976 85 710
977 84 871
978 84 769
979 84 604
980 84 219
981 84 458
982 84 616
983 84 894
984 83 482
985 83 596
986 82 763
987 82 723
988 82 762
989 82 247
990 82 810
991 82 454
992 81 347
993 81 766
994 81 899
995 81 856
996 80 452
997 80 23
998 80 406
999 80 590
1000 80 374
