results/OOEBPP/BPP_1000_400_0.2_0.8_3.txt.ins.log
293,292.504,35.8268,OPT,11746,0,0,AI,0,0.109215,2.843,0.897705,34.3386,0,2,0,64,64
